; benchmark generated from python API
(set-info :status unknown)
(declare-fun cell_1_2 () Int)
(declare-fun cell_1_6 () Int)
(declare-fun cell_2_3 () Int)
(declare-fun cell_2_4 () Int)
(declare-fun cell_3_8 () Int)
(declare-fun cell_3_9 () Int)
(declare-fun cell_4_4 () Int)
(declare-fun cell_4_8 () Int)
(declare-fun cell_5_2 () Int)
(declare-fun cell_5_5 () Int)
(declare-fun cell_6_3 () Int)
(declare-fun cell_6_9 () Int)
(declare-fun cell_7_1 () Int)
(declare-fun cell_7_5 () Int)
(declare-fun cell_8_6 () Int)
(declare-fun cell_8_7 () Int)
(declare-fun cell_9_1 () Int)
(declare-fun cell_1_1 () Int)
(declare-fun cell_2_1 () Int)
(declare-fun cell_3_1 () Int)
(declare-fun cell_4_1 () Int)
(declare-fun cell_5_1 () Int)
(declare-fun cell_6_1 () Int)
(declare-fun cell_8_1 () Int)
(declare-fun cell_2_2 () Int)
(declare-fun cell_3_2 () Int)
(declare-fun cell_4_2 () Int)
(declare-fun cell_6_2 () Int)
(declare-fun cell_7_2 () Int)
(declare-fun cell_8_2 () Int)
(declare-fun cell_9_2 () Int)
(declare-fun cell_1_3 () Int)
(declare-fun cell_3_3 () Int)
(declare-fun cell_4_3 () Int)
(declare-fun cell_5_3 () Int)
(declare-fun cell_7_3 () Int)
(declare-fun cell_8_3 () Int)
(declare-fun cell_9_3 () Int)
(declare-fun cell_1_4 () Int)
(declare-fun cell_3_4 () Int)
(declare-fun cell_5_4 () Int)
(declare-fun cell_6_4 () Int)
(declare-fun cell_7_4 () Int)
(declare-fun cell_8_4 () Int)
(declare-fun cell_9_4 () Int)
(declare-fun cell_1_5 () Int)
(declare-fun cell_2_5 () Int)
(declare-fun cell_3_5 () Int)
(declare-fun cell_4_5 () Int)
(declare-fun cell_6_5 () Int)
(declare-fun cell_8_5 () Int)
(declare-fun cell_9_5 () Int)
(declare-fun cell_2_6 () Int)
(declare-fun cell_3_6 () Int)
(declare-fun cell_4_6 () Int)
(declare-fun cell_5_6 () Int)
(declare-fun cell_6_6 () Int)
(declare-fun cell_7_6 () Int)
(declare-fun cell_9_6 () Int)
(declare-fun cell_1_7 () Int)
(declare-fun cell_2_7 () Int)
(declare-fun cell_3_7 () Int)
(declare-fun cell_4_7 () Int)
(declare-fun cell_5_7 () Int)
(declare-fun cell_6_7 () Int)
(declare-fun cell_7_7 () Int)
(declare-fun cell_9_7 () Int)
(declare-fun cell_1_8 () Int)
(declare-fun cell_2_8 () Int)
(declare-fun cell_5_8 () Int)
(declare-fun cell_6_8 () Int)
(declare-fun cell_7_8 () Int)
(declare-fun cell_8_8 () Int)
(declare-fun cell_9_8 () Int)
(declare-fun cell_1_9 () Int)
(declare-fun cell_2_9 () Int)
(declare-fun cell_4_9 () Int)
(declare-fun cell_5_9 () Int)
(declare-fun cell_7_9 () Int)
(declare-fun cell_8_9 () Int)
(declare-fun cell_9_9 () Int)
(assert
 (= cell_1_2 2))
(assert
 (= cell_1_6 1))
(assert
 (= cell_2_3 1))
(assert
 (= cell_2_4 2))
(assert
 (= cell_3_8 1))
(assert
 (= cell_3_9 2))
(assert
 (= cell_4_4 1))
(assert
 (= cell_4_8 2))
(assert
 (= cell_5_2 1))
(assert
 (= cell_5_5 2))
(assert
 (= cell_6_3 2))
(assert
 (= cell_6_9 1))
(assert
 (= cell_7_1 2))
(assert
 (= cell_7_5 1))
(assert
 (= cell_8_6 2))
(assert
 (= cell_8_7 1))
(assert
 (= cell_9_1 1))
(assert
 (let (($x620 (= cell_1_1 9)))
 (let (($x2162 (= cell_1_1 8)))
 (let (($x2859 (= cell_1_1 7)))
 (let (($x763 (= cell_1_1 6)))
 (let (($x1899 (= cell_1_1 5)))
 (let (($x1153 (= cell_1_1 4)))
 (let (($x96 (= cell_1_1 3)))
 (let (($x80 (= cell_1_1 2)))
 (let (($x2613 (= cell_1_1 1)))
 (or $x2613 $x80 $x96 $x1153 $x1899 $x763 $x2859 $x2162 $x620)))))))))))
(assert
 (let (($x2878 (= cell_2_1 9)))
 (let (($x510 (= cell_2_1 8)))
 (let (($x733 (= cell_2_1 7)))
 (let (($x1307 (= cell_2_1 6)))
 (let (($x189 (= cell_2_1 5)))
 (let (($x76 (= cell_2_1 4)))
 (let (($x1718 (= cell_2_1 3)))
 (let (($x1690 (= cell_2_1 2)))
 (let (($x1764 (= cell_2_1 1)))
 (or $x1764 $x1690 $x1718 $x76 $x189 $x1307 $x733 $x510 $x2878)))))))))))
(assert
 (let (($x603 (= cell_3_1 9)))
 (let (($x2484 (= cell_3_1 8)))
 (let (($x2211 (= cell_3_1 7)))
 (let (($x1533 (= cell_3_1 6)))
 (let (($x1722 (= cell_3_1 5)))
 (let (($x114 (= cell_3_1 4)))
 (let (($x957 (= cell_3_1 3)))
 (let (($x2216 (= cell_3_1 2)))
 (let (($x1788 (= cell_3_1 1)))
 (or $x1788 $x2216 $x957 $x114 $x1722 $x1533 $x2211 $x2484 $x603)))))))))))
(assert
 (let (($x1701 (= cell_4_1 9)))
 (let (($x1633 (= cell_4_1 8)))
 (let (($x536 (= cell_4_1 7)))
 (let (($x1433 (= cell_4_1 6)))
 (let (($x893 (= cell_4_1 5)))
 (let (($x2600 (= cell_4_1 4)))
 (let (($x665 (= cell_4_1 3)))
 (let (($x241 (= cell_4_1 2)))
 (let (($x1847 (= cell_4_1 1)))
 (or $x1847 $x241 $x665 $x2600 $x893 $x1433 $x536 $x1633 $x1701)))))))))))
(assert
 (let (($x2973 (= cell_5_1 9)))
 (let (($x343 (= cell_5_1 8)))
 (let (($x158 (= cell_5_1 7)))
 (let (($x1677 (= cell_5_1 6)))
 (let (($x360 (= cell_5_1 5)))
 (let (($x1387 (= cell_5_1 4)))
 (let (($x2316 (= cell_5_1 3)))
 (let (($x2785 (= cell_5_1 2)))
 (let (($x719 (= cell_5_1 1)))
 (or $x719 $x2785 $x2316 $x1387 $x360 $x1677 $x158 $x343 $x2973)))))))))))
(assert
 (let (($x711 (= cell_6_1 9)))
 (let (($x2932 (= cell_6_1 8)))
 (let (($x192 (= cell_6_1 7)))
 (let (($x2153 (= cell_6_1 6)))
 (let (($x2358 (= cell_6_1 5)))
 (let (($x2777 (= cell_6_1 4)))
 (let (($x2575 (= cell_6_1 3)))
 (let (($x2597 (= cell_6_1 2)))
 (let (($x153 (= cell_6_1 1)))
 (or $x153 $x2597 $x2575 $x2777 $x2358 $x2153 $x192 $x2932 $x711)))))))))))
(assert
 (let (($x770 (= cell_7_1 2)))
 (or (= cell_7_1 1) $x770 (= cell_7_1 3) (= cell_7_1 4) (= cell_7_1 5) (= cell_7_1 6) (= cell_7_1 7) (= cell_7_1 8) (= cell_7_1 9))))
(assert
 (let (($x116 (= cell_8_1 9)))
 (let (($x2919 (= cell_8_1 8)))
 (let (($x597 (= cell_8_1 7)))
 (let (($x240 (= cell_8_1 6)))
 (let (($x901 (= cell_8_1 5)))
 (let (($x847 (= cell_8_1 4)))
 (let (($x1800 (= cell_8_1 3)))
 (let (($x2404 (= cell_8_1 2)))
 (let (($x1802 (= cell_8_1 1)))
 (or $x1802 $x2404 $x1800 $x847 $x901 $x240 $x597 $x2919 $x116)))))))))))
(assert
 (let (($x1942 (= cell_9_1 1)))
 (or $x1942 (= cell_9_1 2) (= cell_9_1 3) (= cell_9_1 4) (= cell_9_1 5) (= cell_9_1 6) (= cell_9_1 7) (= cell_9_1 8) (= cell_9_1 9))))
(assert
 (let (($x2696 (= cell_1_2 2)))
 (or (= cell_1_2 1) $x2696 (= cell_1_2 3) (= cell_1_2 4) (= cell_1_2 5) (= cell_1_2 6) (= cell_1_2 7) (= cell_1_2 8) (= cell_1_2 9))))
(assert
 (let (($x1884 (= cell_2_2 9)))
 (let (($x2961 (= cell_2_2 8)))
 (let (($x1838 (= cell_2_2 7)))
 (let (($x2133 (= cell_2_2 6)))
 (let (($x408 (= cell_2_2 5)))
 (let (($x790 (= cell_2_2 4)))
 (let (($x2760 (= cell_2_2 3)))
 (let (($x2410 (= cell_2_2 2)))
 (let (($x2601 (= cell_2_2 1)))
 (or $x2601 $x2410 $x2760 $x790 $x408 $x2133 $x1838 $x2961 $x1884)))))))))))
(assert
 (let (($x714 (= cell_3_2 9)))
 (let (($x2968 (= cell_3_2 8)))
 (let (($x2054 (= cell_3_2 7)))
 (let (($x1170 (= cell_3_2 6)))
 (let (($x2058 (= cell_3_2 5)))
 (let (($x2489 (= cell_3_2 4)))
 (let (($x2747 (= cell_3_2 3)))
 (let (($x278 (= cell_3_2 2)))
 (let (($x32 (= cell_3_2 1)))
 (or $x32 $x278 $x2747 $x2489 $x2058 $x1170 $x2054 $x2968 $x714)))))))))))
(assert
 (let (($x154 (= cell_4_2 9)))
 (let (($x2229 (= cell_4_2 8)))
 (let (($x2375 (= cell_4_2 7)))
 (let (($x2324 (= cell_4_2 6)))
 (let (($x21 (= cell_4_2 5)))
 (let (($x381 (= cell_4_2 4)))
 (let (($x1882 (= cell_4_2 3)))
 (let (($x2596 (= cell_4_2 2)))
 (let (($x2723 (= cell_4_2 1)))
 (or $x2723 $x2596 $x1882 $x381 $x21 $x2324 $x2375 $x2229 $x154)))))))))))
(assert
 (let (($x1642 (= cell_5_2 1)))
 (or $x1642 (= cell_5_2 2) (= cell_5_2 3) (= cell_5_2 4) (= cell_5_2 5) (= cell_5_2 6) (= cell_5_2 7) (= cell_5_2 8) (= cell_5_2 9))))
(assert
 (let (($x2547 (= cell_6_2 9)))
 (let (($x2347 (= cell_6_2 8)))
 (let (($x441 (= cell_6_2 7)))
 (let (($x1940 (= cell_6_2 6)))
 (let (($x601 (= cell_6_2 5)))
 (let (($x2911 (= cell_6_2 4)))
 (let (($x2611 (= cell_6_2 3)))
 (let (($x2416 (= cell_6_2 2)))
 (let (($x1529 (= cell_6_2 1)))
 (or $x1529 $x2416 $x2611 $x2911 $x601 $x1940 $x441 $x2347 $x2547)))))))))))
(assert
 (let (($x2947 (= cell_7_2 9)))
 (let (($x2681 (= cell_7_2 8)))
 (let (($x857 (= cell_7_2 7)))
 (let (($x68 (= cell_7_2 6)))
 (let (($x1627 (= cell_7_2 5)))
 (let (($x1350 (= cell_7_2 4)))
 (let (($x1995 (= cell_7_2 3)))
 (let (($x2142 (= cell_7_2 2)))
 (let (($x1051 (= cell_7_2 1)))
 (or $x1051 $x2142 $x1995 $x1350 $x1627 $x68 $x857 $x2681 $x2947)))))))))))
(assert
 (let (($x70 (= cell_8_2 9)))
 (let (($x1041 (= cell_8_2 8)))
 (let (($x2504 (= cell_8_2 7)))
 (let (($x1030 (= cell_8_2 6)))
 (let (($x2679 (= cell_8_2 5)))
 (let (($x2384 (= cell_8_2 4)))
 (let (($x1128 (= cell_8_2 3)))
 (let (($x319 (= cell_8_2 2)))
 (let (($x2690 (= cell_8_2 1)))
 (or $x2690 $x319 $x1128 $x2384 $x2679 $x1030 $x2504 $x1041 $x70)))))))))))
(assert
 (let (($x2788 (= cell_9_2 2)))
 (let (($x1418 (= cell_9_2 1)))
 (or $x1418 $x2788 (= cell_9_2 3) (= cell_9_2 4) (= cell_9_2 5) (= cell_9_2 6) (= cell_9_2 7) (= cell_9_2 8) (= cell_9_2 9)))))
(assert
 (let (($x2717 (= cell_1_3 9)))
 (let (($x269 (= cell_1_3 8)))
 (let (($x400 (= cell_1_3 7)))
 (let (($x2078 (= cell_1_3 6)))
 (let (($x2884 (= cell_1_3 5)))
 (let (($x323 (= cell_1_3 4)))
 (let (($x752 (= cell_1_3 3)))
 (let (($x3770 (= cell_1_3 2)))
 (let (($x8 (= cell_1_3 1)))
 (or $x8 $x3770 $x752 $x323 $x2884 $x2078 $x400 $x269 $x2717)))))))))))
(assert
 (let (($x700 (= cell_2_3 1)))
 (or $x700 (= cell_2_3 2) (= cell_2_3 3) (= cell_2_3 4) (= cell_2_3 5) (= cell_2_3 6) (= cell_2_3 7) (= cell_2_3 8) (= cell_2_3 9))))
(assert
 (let (($x516 (= cell_3_3 9)))
 (let (($x1583 (= cell_3_3 8)))
 (let (($x2199 (= cell_3_3 7)))
 (let (($x2817 (= cell_3_3 6)))
 (let (($x2850 (= cell_3_3 5)))
 (let (($x37 (= cell_3_3 4)))
 (let (($x1548 (= cell_3_3 3)))
 (let (($x1435 (= cell_3_3 2)))
 (let (($x2124 (= cell_3_3 1)))
 (or $x2124 $x1435 $x1548 $x37 $x2850 $x2817 $x2199 $x1583 $x516)))))))))))
(assert
 (let (($x2633 (= cell_4_3 9)))
 (let (($x518 (= cell_4_3 8)))
 (let (($x728 (= cell_4_3 7)))
 (let (($x2161 (= cell_4_3 6)))
 (let (($x1733 (= cell_4_3 5)))
 (let (($x275 (= cell_4_3 4)))
 (let (($x2587 (= cell_4_3 3)))
 (let (($x2077 (= cell_4_3 2)))
 (let (($x2568 (= cell_4_3 1)))
 (or $x2568 $x2077 $x2587 $x275 $x1733 $x2161 $x728 $x518 $x2633)))))))))))
(assert
 (let (($x2428 (= cell_5_3 9)))
 (let (($x2031 (= cell_5_3 8)))
 (let (($x1953 (= cell_5_3 7)))
 (let (($x1340 (= cell_5_3 6)))
 (let (($x559 (= cell_5_3 5)))
 (let (($x1734 (= cell_5_3 4)))
 (let (($x1033 (= cell_5_3 3)))
 (let (($x1420 (= cell_5_3 2)))
 (let (($x1962 (= cell_5_3 1)))
 (or $x1962 $x1420 $x1033 $x1734 $x559 $x1340 $x1953 $x2031 $x2428)))))))))))
(assert
 (let (($x911 (= cell_6_3 2)))
 (or (= cell_6_3 1) $x911 (= cell_6_3 3) (= cell_6_3 4) (= cell_6_3 5) (= cell_6_3 6) (= cell_6_3 7) (= cell_6_3 8) (= cell_6_3 9))))
(assert
 (let (($x165 (= cell_7_3 9)))
 (let (($x663 (= cell_7_3 8)))
 (let (($x1972 (= cell_7_3 7)))
 (let (($x51 (= cell_7_3 6)))
 (let (($x1195 (= cell_7_3 5)))
 (let (($x2110 (= cell_7_3 4)))
 (let (($x1686 (= cell_7_3 3)))
 (let (($x932 (= cell_7_3 2)))
 (let (($x2370 (= cell_7_3 1)))
 (or $x2370 $x932 $x1686 $x2110 $x1195 $x51 $x1972 $x663 $x165)))))))))))
(assert
 (let (($x2475 (= cell_8_3 9)))
 (let (($x831 (= cell_8_3 8)))
 (let (($x448 (= cell_8_3 7)))
 (let (($x553 (= cell_8_3 6)))
 (let (($x149 (= cell_8_3 5)))
 (let (($x2407 (= cell_8_3 4)))
 (let (($x1924 (= cell_8_3 3)))
 (let (($x936 (= cell_8_3 2)))
 (let (($x483 (= cell_8_3 1)))
 (or $x483 $x936 $x1924 $x2407 $x149 $x553 $x448 $x831 $x2475)))))))))))
(assert
 (let (($x629 (= cell_9_3 2)))
 (let (($x866 (= cell_9_3 1)))
 (or $x866 $x629 (= cell_9_3 3) (= cell_9_3 4) (= cell_9_3 5) (= cell_9_3 6) (= cell_9_3 7) (= cell_9_3 8) (= cell_9_3 9)))))
(assert
 (let (($x489 (= cell_1_4 9)))
 (let (($x61 (= cell_1_4 8)))
 (let (($x1517 (= cell_1_4 7)))
 (let (($x661 (= cell_1_4 6)))
 (let (($x428 (= cell_1_4 5)))
 (let (($x1311 (= cell_1_4 4)))
 (let (($x2260 (= cell_1_4 3)))
 (let (($x550 (= cell_1_4 2)))
 (let (($x1564 (= cell_1_4 1)))
 (or $x1564 $x550 $x2260 $x1311 $x428 $x661 $x1517 $x61 $x489)))))))))))
(assert
 (let (($x26 (= cell_2_4 2)))
 (or (= cell_2_4 1) $x26 (= cell_2_4 3) (= cell_2_4 4) (= cell_2_4 5) (= cell_2_4 6) (= cell_2_4 7) (= cell_2_4 8) (= cell_2_4 9))))
(assert
 (let (($x54 (= cell_3_4 9)))
 (let (($x1220 (= cell_3_4 8)))
 (let (($x1793 (= cell_3_4 7)))
 (let (($x959 (= cell_3_4 6)))
 (let (($x2085 (= cell_3_4 5)))
 (let (($x885 (= cell_3_4 4)))
 (let (($x1189 (= cell_3_4 3)))
 (let (($x467 (= cell_3_4 2)))
 (let (($x798 (= cell_3_4 1)))
 (or $x798 $x467 $x1189 $x885 $x2085 $x959 $x1793 $x1220 $x54)))))))))))
(assert
 (let (($x1614 (= cell_4_4 1)))
 (or $x1614 (= cell_4_4 2) (= cell_4_4 3) (= cell_4_4 4) (= cell_4_4 5) (= cell_4_4 6) (= cell_4_4 7) (= cell_4_4 8) (= cell_4_4 9))))
(assert
 (let (($x546 (= cell_5_4 9)))
 (let (($x1234 (= cell_5_4 8)))
 (let (($x1349 (= cell_5_4 7)))
 (let (($x2060 (= cell_5_4 6)))
 (let (($x872 (= cell_5_4 5)))
 (let (($x532 (= cell_5_4 4)))
 (let (($x2446 (= cell_5_4 3)))
 (let (($x635 (= cell_5_4 2)))
 (let (($x1360 (= cell_5_4 1)))
 (or $x1360 $x635 $x2446 $x532 $x872 $x2060 $x1349 $x1234 $x546)))))))))))
(assert
 (let (($x2940 (= cell_6_4 9)))
 (let (($x1245 (= cell_6_4 8)))
 (let (($x527 (= cell_6_4 7)))
 (let (($x671 (= cell_6_4 6)))
 (let (($x236 (= cell_6_4 5)))
 (let (($x2138 (= cell_6_4 4)))
 (let (($x1352 (= cell_6_4 3)))
 (let (($x1634 (= cell_6_4 2)))
 (let (($x372 (= cell_6_4 1)))
 (or $x372 $x1634 $x1352 $x2138 $x236 $x671 $x527 $x1245 $x2940)))))))))))
(assert
 (let (($x97 (= cell_7_4 9)))
 (let (($x561 (= cell_7_4 8)))
 (let (($x2293 (= cell_7_4 7)))
 (let (($x1678 (= cell_7_4 6)))
 (let (($x2203 (= cell_7_4 5)))
 (let (($x2513 (= cell_7_4 4)))
 (let (($x680 (= cell_7_4 3)))
 (let (($x621 (= cell_7_4 2)))
 (let (($x644 (= cell_7_4 1)))
 (or $x644 $x621 $x680 $x2513 $x2203 $x1678 $x2293 $x561 $x97)))))))))))
(assert
 (let (($x2182 (= cell_8_4 9)))
 (let (($x120 (= cell_8_4 8)))
 (let (($x1637 (= cell_8_4 7)))
 (let (($x469 (= cell_8_4 6)))
 (let (($x891 (= cell_8_4 5)))
 (let (($x2488 (= cell_8_4 4)))
 (let (($x983 (= cell_8_4 3)))
 (let (($x1087 (= cell_8_4 2)))
 (let (($x366 (= cell_8_4 1)))
 (or $x366 $x1087 $x983 $x2488 $x891 $x469 $x1637 $x120 $x2182)))))))))))
(assert
 (let (($x104 (= cell_9_4 2)))
 (let (($x2327 (= cell_9_4 1)))
 (or $x2327 $x104 (= cell_9_4 3) (= cell_9_4 4) (= cell_9_4 5) (= cell_9_4 6) (= cell_9_4 7) (= cell_9_4 8) (= cell_9_4 9)))))
(assert
 (let (($x2066 (= cell_1_5 9)))
 (let (($x30 (= cell_1_5 8)))
 (let (($x1640 (= cell_1_5 7)))
 (let (($x1160 (= cell_1_5 6)))
 (let (($x1248 (= cell_1_5 5)))
 (let (($x1411 (= cell_1_5 4)))
 (let (($x2793 (= cell_1_5 3)))
 (let (($x844 (= cell_1_5 2)))
 (let (($x129 (= cell_1_5 1)))
 (or $x129 $x844 $x2793 $x1411 $x1248 $x1160 $x1640 $x30 $x2066)))))))))))
(assert
 (let (($x997 (= cell_2_5 9)))
 (let (($x672 (= cell_2_5 8)))
 (let (($x2725 (= cell_2_5 7)))
 (let (($x1105 (= cell_2_5 6)))
 (let (($x1343 (= cell_2_5 5)))
 (let (($x1278 (= cell_2_5 4)))
 (let (($x1786 (= cell_2_5 3)))
 (let (($x1632 (= cell_2_5 2)))
 (let (($x785 (= cell_2_5 1)))
 (or $x785 $x1632 $x1786 $x1278 $x1343 $x1105 $x2725 $x672 $x997)))))))))))
(assert
 (let (($x2227 (= cell_3_5 9)))
 (let (($x452 (= cell_3_5 8)))
 (let (($x1021 (= cell_3_5 7)))
 (let (($x881 (= cell_3_5 6)))
 (let (($x2672 (= cell_3_5 5)))
 (let (($x2481 (= cell_3_5 4)))
 (let (($x955 (= cell_3_5 3)))
 (let (($x2790 (= cell_3_5 2)))
 (let (($x923 (= cell_3_5 1)))
 (or $x923 $x2790 $x955 $x2481 $x2672 $x881 $x1021 $x452 $x2227)))))))))))
(assert
 (let (($x2451 (= cell_4_5 9)))
 (let (($x2678 (= cell_4_5 8)))
 (let (($x2709 (= cell_4_5 7)))
 (let (($x318 (= cell_4_5 6)))
 (let (($x2922 (= cell_4_5 5)))
 (let (($x2801 (= cell_4_5 4)))
 (let (($x2101 (= cell_4_5 3)))
 (let (($x2222 (= cell_4_5 2)))
 (let (($x358 (= cell_4_5 1)))
 (or $x358 $x2222 $x2101 $x2801 $x2922 $x318 $x2709 $x2678 $x2451)))))))))))
(assert
 (let (($x2550 (= cell_5_5 2)))
 (or (= cell_5_5 1) $x2550 (= cell_5_5 3) (= cell_5_5 4) (= cell_5_5 5) (= cell_5_5 6) (= cell_5_5 7) (= cell_5_5 8) (= cell_5_5 9))))
(assert
 (let (($x1750 (= cell_6_5 9)))
 (let (($x1729 (= cell_6_5 8)))
 (let (($x389 (= cell_6_5 7)))
 (let (($x840 (= cell_6_5 6)))
 (let (($x1489 (= cell_6_5 5)))
 (let (($x2062 (= cell_6_5 4)))
 (let (($x716 (= cell_6_5 3)))
 (let (($x1818 (= cell_6_5 2)))
 (let (($x1971 (= cell_6_5 1)))
 (or $x1971 $x1818 $x716 $x2062 $x1489 $x840 $x389 $x1729 $x1750)))))))))))
(assert
 (let (($x2661 (= cell_7_5 1)))
 (or $x2661 (= cell_7_5 2) (= cell_7_5 3) (= cell_7_5 4) (= cell_7_5 5) (= cell_7_5 6) (= cell_7_5 7) (= cell_7_5 8) (= cell_7_5 9))))
(assert
 (let (($x1741 (= cell_8_5 9)))
 (let (($x2193 (= cell_8_5 8)))
 (let (($x533 (= cell_8_5 7)))
 (let (($x2226 (= cell_8_5 6)))
 (let (($x646 (= cell_8_5 5)))
 (let (($x2438 (= cell_8_5 4)))
 (let (($x378 (= cell_8_5 3)))
 (let (($x2134 (= cell_8_5 2)))
 (let (($x1844 (= cell_8_5 1)))
 (or $x1844 $x2134 $x378 $x2438 $x646 $x2226 $x533 $x2193 $x1741)))))))))))
(assert
 (let (($x933 (= cell_9_5 2)))
 (let (($x464 (= cell_9_5 1)))
 (or $x464 $x933 (= cell_9_5 3) (= cell_9_5 4) (= cell_9_5 5) (= cell_9_5 6) (= cell_9_5 7) (= cell_9_5 8) (= cell_9_5 9)))))
(assert
 (let (($x250 (= cell_1_6 1)))
 (or $x250 (= cell_1_6 2) (= cell_1_6 3) (= cell_1_6 4) (= cell_1_6 5) (= cell_1_6 6) (= cell_1_6 7) (= cell_1_6 8) (= cell_1_6 9))))
(assert
 (let (($x142 (= cell_2_6 9)))
 (let (($x558 (= cell_2_6 8)))
 (let (($x174 (= cell_2_6 7)))
 (let (($x2875 (= cell_2_6 6)))
 (let (($x1768 (= cell_2_6 5)))
 (let (($x1157 (= cell_2_6 4)))
 (let (($x1287 (= cell_2_6 3)))
 (let (($x101 (= cell_2_6 2)))
 (let (($x1384 (= cell_2_6 1)))
 (or $x1384 $x101 $x1287 $x1157 $x1768 $x2875 $x174 $x558 $x142)))))))))))
(assert
 (let (($x2768 (= cell_3_6 9)))
 (let (($x1782 (= cell_3_6 8)))
 (let (($x508 (= cell_3_6 7)))
 (let (($x307 (= cell_3_6 6)))
 (let (($x264 (= cell_3_6 5)))
 (let (($x773 (= cell_3_6 4)))
 (let (($x713 (= cell_3_6 3)))
 (let (($x2663 (= cell_3_6 2)))
 (let (($x1479 (= cell_3_6 1)))
 (or $x1479 $x2663 $x713 $x773 $x264 $x307 $x508 $x1782 $x2768)))))))))))
(assert
 (let (($x112 (= cell_4_6 9)))
 (let (($x1673 (= cell_4_6 8)))
 (let (($x1928 (= cell_4_6 7)))
 (let (($x2726 (= cell_4_6 6)))
 (let (($x1540 (= cell_4_6 5)))
 (let (($x2340 (= cell_4_6 4)))
 (let (($x3945 (= cell_4_6 3)))
 (let (($x979 (= cell_4_6 2)))
 (let (($x442 (= cell_4_6 1)))
 (or $x442 $x979 $x3945 $x2340 $x1540 $x2726 $x1928 $x1673 $x112)))))))))))
(assert
 (let (($x2471 (= cell_5_6 9)))
 (let (($x873 (= cell_5_6 8)))
 (let (($x2639 (= cell_5_6 7)))
 (let (($x890 (= cell_5_6 6)))
 (let (($x552 (= cell_5_6 5)))
 (let (($x2844 (= cell_5_6 4)))
 (let (($x175 (= cell_5_6 3)))
 (let (($x2557 (= cell_5_6 2)))
 (let (($x981 (= cell_5_6 1)))
 (or $x981 $x2557 $x175 $x2844 $x552 $x890 $x2639 $x873 $x2471)))))))))))
(assert
 (let (($x1707 (= cell_6_6 9)))
 (let (($x535 (= cell_6_6 8)))
 (let (($x1295 (= cell_6_6 7)))
 (let (($x948 (= cell_6_6 6)))
 (let (($x1558 (= cell_6_6 5)))
 (let (($x878 (= cell_6_6 4)))
 (let (($x64 (= cell_6_6 3)))
 (let (($x2628 (= cell_6_6 2)))
 (let (($x2900 (= cell_6_6 1)))
 (or $x2900 $x2628 $x64 $x878 $x1558 $x948 $x1295 $x535 $x1707)))))))))))
(assert
 (let (($x2607 (= cell_7_6 9)))
 (let (($x1383 (= cell_7_6 8)))
 (let (($x704 (= cell_7_6 7)))
 (let (($x2076 (= cell_7_6 6)))
 (let (($x350 (= cell_7_6 5)))
 (let (($x1096 (= cell_7_6 4)))
 (let (($x916 (= cell_7_6 3)))
 (let (($x2880 (= cell_7_6 2)))
 (let (($x430 (= cell_7_6 1)))
 (or $x430 $x2880 $x916 $x1096 $x350 $x2076 $x704 $x1383 $x2607)))))))))))
(assert
 (let (($x2983 (= cell_8_6 2)))
 (or (= cell_8_6 1) $x2983 (= cell_8_6 3) (= cell_8_6 4) (= cell_8_6 5) (= cell_8_6 6) (= cell_8_6 7) (= cell_8_6 8) (= cell_8_6 9))))
(assert
 (let (($x1143 (= cell_9_6 2)))
 (let (($x2238 (= cell_9_6 1)))
 (or $x2238 $x1143 (= cell_9_6 3) (= cell_9_6 4) (= cell_9_6 5) (= cell_9_6 6) (= cell_9_6 7) (= cell_9_6 8) (= cell_9_6 9)))))
(assert
 (let (($x187 (= cell_1_7 9)))
 (let (($x523 (= cell_1_7 8)))
 (let (($x2228 (= cell_1_7 7)))
 (let (($x198 (= cell_1_7 6)))
 (let (($x361 (= cell_1_7 5)))
 (let (($x1505 (= cell_1_7 4)))
 (let (($x1425 (= cell_1_7 3)))
 (let (($x1009 (= cell_1_7 2)))
 (let (($x2308 (= cell_1_7 1)))
 (or $x2308 $x1009 $x1425 $x1505 $x361 $x198 $x2228 $x523 $x187)))))))))))
(assert
 (let (($x1100 (= cell_2_7 9)))
 (let (($x1915 (= cell_2_7 8)))
 (let (($x2967 (= cell_2_7 7)))
 (let (($x1026 (= cell_2_7 6)))
 (let (($x1708 (= cell_2_7 5)))
 (let (($x2150 (= cell_2_7 4)))
 (let (($x1699 (= cell_2_7 3)))
 (let (($x170 (= cell_2_7 2)))
 (let (($x1483 (= cell_2_7 1)))
 (or $x1483 $x170 $x1699 $x2150 $x1708 $x1026 $x2967 $x1915 $x1100)))))))))))
(assert
 (let (($x405 (= cell_3_7 9)))
 (let (($x2516 (= cell_3_7 8)))
 (let (($x1188 (= cell_3_7 7)))
 (let (($x1261 (= cell_3_7 6)))
 (let (($x421 (= cell_3_7 5)))
 (let (($x1698 (= cell_3_7 4)))
 (let (($x2335 (= cell_3_7 3)))
 (let (($x986 (= cell_3_7 2)))
 (let (($x81 (= cell_3_7 1)))
 (or $x81 $x986 $x2335 $x1698 $x421 $x1261 $x1188 $x2516 $x405)))))))))))
(assert
 (let (($x1402 (= cell_4_7 9)))
 (let (($x2283 (= cell_4_7 8)))
 (let (($x293 (= cell_4_7 7)))
 (let (($x1767 (= cell_4_7 6)))
 (let (($x2140 (= cell_4_7 5)))
 (let (($x2457 (= cell_4_7 4)))
 (let (($x868 (= cell_4_7 3)))
 (let (($x705 (= cell_4_7 2)))
 (let (($x2163 (= cell_4_7 1)))
 (or $x2163 $x705 $x868 $x2457 $x2140 $x1767 $x293 $x2283 $x1402)))))))))))
(assert
 (let (($x2257 (= cell_5_7 9)))
 (let (($x1292 (= cell_5_7 8)))
 (let (($x1462 (= cell_5_7 7)))
 (let (($x2762 (= cell_5_7 6)))
 (let (($x359 (= cell_5_7 5)))
 (let (($x2685 (= cell_5_7 4)))
 (let (($x301 (= cell_5_7 3)))
 (let (($x474 (= cell_5_7 2)))
 (let (($x1602 (= cell_5_7 1)))
 (or $x1602 $x474 $x301 $x2685 $x359 $x2762 $x1462 $x1292 $x2257)))))))))))
(assert
 (let (($x1927 (= cell_6_7 9)))
 (let (($x2764 (= cell_6_7 8)))
 (let (($x976 (= cell_6_7 7)))
 (let (($x59 (= cell_6_7 6)))
 (let (($x2038 (= cell_6_7 5)))
 (let (($x807 (= cell_6_7 4)))
 (let (($x351 (= cell_6_7 3)))
 (let (($x1859 (= cell_6_7 2)))
 (let (($x1381 (= cell_6_7 1)))
 (or $x1381 $x1859 $x351 $x807 $x2038 $x59 $x976 $x2764 $x1927)))))))))))
(assert
 (let (($x687 (= cell_7_7 9)))
 (let (($x2566 (= cell_7_7 8)))
 (let (($x1417 (= cell_7_7 7)))
 (let (($x235 (= cell_7_7 6)))
 (let (($x1902 (= cell_7_7 5)))
 (let (($x607 (= cell_7_7 4)))
 (let (($x2631 (= cell_7_7 3)))
 (let (($x2816 (= cell_7_7 2)))
 (let (($x73 (= cell_7_7 1)))
 (or $x73 $x2816 $x2631 $x607 $x1902 $x235 $x1417 $x2566 $x687)))))))))))
(assert
 (let (($x1555 (= cell_8_7 1)))
 (or $x1555 (= cell_8_7 2) (= cell_8_7 3) (= cell_8_7 4) (= cell_8_7 5) (= cell_8_7 6) (= cell_8_7 7) (= cell_8_7 8) (= cell_8_7 9))))
(assert
 (let (($x2856 (= cell_9_7 2)))
 (let (($x472 (= cell_9_7 1)))
 (or $x472 $x2856 (= cell_9_7 3) (= cell_9_7 4) (= cell_9_7 5) (= cell_9_7 6) (= cell_9_7 7) (= cell_9_7 8) (= cell_9_7 9)))))
(assert
 (let (($x304 (= cell_1_8 9)))
 (let (($x2291 (= cell_1_8 8)))
 (let (($x2030 (= cell_1_8 7)))
 (let (($x563 (= cell_1_8 6)))
 (let (($x2413 (= cell_1_8 5)))
 (let (($x723 (= cell_1_8 4)))
 (let (($x393 (= cell_1_8 3)))
 (let (($x1049 (= cell_1_8 2)))
 (let (($x188 (= cell_1_8 1)))
 (or $x188 $x1049 $x393 $x723 $x2413 $x563 $x2030 $x2291 $x304)))))))))))
(assert
 (let (($x1066 (= cell_2_8 9)))
 (let (($x2474 (= cell_2_8 8)))
 (let (($x898 (= cell_2_8 7)))
 (let (($x757 (= cell_2_8 6)))
 (let (($x1536 (= cell_2_8 5)))
 (let (($x958 (= cell_2_8 4)))
 (let (($x1206 (= cell_2_8 3)))
 (let (($x98 (= cell_2_8 2)))
 (let (($x2734 (= cell_2_8 1)))
 (or $x2734 $x98 $x1206 $x958 $x1536 $x757 $x898 $x2474 $x1066)))))))))))
(assert
 (let (($x2388 (= cell_3_8 1)))
 (or $x2388 (= cell_3_8 2) (= cell_3_8 3) (= cell_3_8 4) (= cell_3_8 5) (= cell_3_8 6) (= cell_3_8 7) (= cell_3_8 8) (= cell_3_8 9))))
(assert
 (let (($x2109 (= cell_4_8 2)))
 (or (= cell_4_8 1) $x2109 (= cell_4_8 3) (= cell_4_8 4) (= cell_4_8 5) (= cell_4_8 6) (= cell_4_8 7) (= cell_4_8 8) (= cell_4_8 9))))
(assert
 (let (($x907 (= cell_5_8 9)))
 (let (($x410 (= cell_5_8 8)))
 (let (($x194 (= cell_5_8 7)))
 (let (($x2123 (= cell_5_8 6)))
 (let (($x1333 (= cell_5_8 5)))
 (let (($x2125 (= cell_5_8 4)))
 (let (($x66 (= cell_5_8 3)))
 (let (($x172 (= cell_5_8 2)))
 (let (($x2334 (= cell_5_8 1)))
 (or $x2334 $x172 $x66 $x2125 $x1333 $x2123 $x194 $x410 $x907)))))))))))
(assert
 (let (($x2221 (= cell_6_8 9)))
 (let (($x213 (= cell_6_8 8)))
 (let (($x1537 (= cell_6_8 7)))
 (let (($x294 (= cell_6_8 6)))
 (let (($x616 (= cell_6_8 5)))
 (let (($x444 (= cell_6_8 4)))
 (let (($x1251 (= cell_6_8 3)))
 (let (($x183 (= cell_6_8 2)))
 (let (($x1930 (= cell_6_8 1)))
 (or $x1930 $x183 $x1251 $x444 $x616 $x294 $x1537 $x213 $x2221)))))))))))
(assert
 (let (($x653 (= cell_7_8 9)))
 (let (($x2796 (= cell_7_8 8)))
 (let (($x2714 (= cell_7_8 7)))
 (let (($x905 (= cell_7_8 6)))
 (let (($x475 (= cell_7_8 5)))
 (let (($x1204 (= cell_7_8 4)))
 (let (($x1405 (= cell_7_8 3)))
 (let (($x60 (= cell_7_8 2)))
 (let (($x2300 (= cell_7_8 1)))
 (or $x2300 $x60 $x1405 $x1204 $x475 $x905 $x2714 $x2796 $x653)))))))))))
(assert
 (let (($x141 (= cell_8_8 2)))
 (let (($x1108 (= cell_8_8 1)))
 (or $x1108 $x141 (= cell_8_8 3) (= cell_8_8 4) (= cell_8_8 5) (= cell_8_8 6) (= cell_8_8 7) (= cell_8_8 8) (= cell_8_8 9)))))
(assert
 (let (($x2202 (= cell_9_8 2)))
 (let (($x1069 (= cell_9_8 1)))
 (or $x1069 $x2202 (= cell_9_8 3) (= cell_9_8 4) (= cell_9_8 5) (= cell_9_8 6) (= cell_9_8 7) (= cell_9_8 8) (= cell_9_8 9)))))
(assert
 (let (($x2740 (= cell_1_9 9)))
 (let (($x1080 (= cell_1_9 8)))
 (let (($x2585 (= cell_1_9 7)))
 (let (($x1339 (= cell_1_9 6)))
 (let (($x540 (= cell_1_9 5)))
 (let (($x171 (= cell_1_9 4)))
 (let (($x1982 (= cell_1_9 3)))
 (let (($x863 (= cell_1_9 2)))
 (let (($x2269 (= cell_1_9 1)))
 (or $x2269 $x863 $x1982 $x171 $x540 $x1339 $x2585 $x1080 $x2740)))))))))))
(assert
 (let (($x1400 (= cell_2_9 9)))
 (let (($x1841 (= cell_2_9 8)))
 (let (($x2813 (= cell_2_9 7)))
 (let (($x2892 (= cell_2_9 6)))
 (let (($x2770 (= cell_2_9 5)))
 (let (($x1300 (= cell_2_9 4)))
 (let (($x2736 (= cell_2_9 3)))
 (let (($x2317 (= cell_2_9 2)))
 (let (($x362 (= cell_2_9 1)))
 (or $x362 $x2317 $x2736 $x1300 $x2770 $x2892 $x2813 $x1841 $x1400)))))))))))
(assert
 (let (($x2579 (= cell_3_9 2)))
 (or (= cell_3_9 1) $x2579 (= cell_3_9 3) (= cell_3_9 4) (= cell_3_9 5) (= cell_3_9 6) (= cell_3_9 7) (= cell_3_9 8) (= cell_3_9 9))))
(assert
 (let (($x1528 (= cell_4_9 9)))
 (let (($x2185 (= cell_4_9 8)))
 (let (($x2341 (= cell_4_9 7)))
 (let (($x2057 (= cell_4_9 6)))
 (let (($x756 (= cell_4_9 5)))
 (let (($x2792 (= cell_4_9 4)))
 (let (($x399 (= cell_4_9 3)))
 (let (($x884 (= cell_4_9 2)))
 (let (($x2338 (= cell_4_9 1)))
 (or $x2338 $x884 $x399 $x2792 $x756 $x2057 $x2341 $x2185 $x1528)))))))))))
(assert
 (let (($x1125 (= cell_5_9 9)))
 (let (($x1359 (= cell_5_9 8)))
 (let (($x771 (= cell_5_9 7)))
 (let (($x205 (= cell_5_9 6)))
 (let (($x2382 (= cell_5_9 5)))
 (let (($x739 (= cell_5_9 4)))
 (let (($x2243 (= cell_5_9 3)))
 (let (($x980 (= cell_5_9 2)))
 (let (($x2659 (= cell_5_9 1)))
 (or $x2659 $x980 $x2243 $x739 $x2382 $x205 $x771 $x1359 $x1125)))))))))))
(assert
 (let (($x897 (= cell_6_9 1)))
 (or $x897 (= cell_6_9 2) (= cell_6_9 3) (= cell_6_9 4) (= cell_6_9 5) (= cell_6_9 6) (= cell_6_9 7) (= cell_6_9 8) (= cell_6_9 9))))
(assert
 (let (($x2326 (= cell_7_9 9)))
 (let (($x312 (= cell_7_9 8)))
 (let (($x2189 (= cell_7_9 7)))
 (let (($x2802 (= cell_7_9 6)))
 (let (($x2278 (= cell_7_9 5)))
 (let (($x1877 (= cell_7_9 4)))
 (let (($x2082 (= cell_7_9 3)))
 (let (($x1466 (= cell_7_9 2)))
 (let (($x637 (= cell_7_9 1)))
 (or $x637 $x1466 $x2082 $x1877 $x2278 $x2802 $x2189 $x312 $x2326)))))))))))
(assert
 (let (($x1208 (= cell_8_9 2)))
 (let (($x2119 (= cell_8_9 1)))
 (or $x2119 $x1208 (= cell_8_9 3) (= cell_8_9 4) (= cell_8_9 5) (= cell_8_9 6) (= cell_8_9 7) (= cell_8_9 8) (= cell_8_9 9)))))
(assert
 (let (($x2186 (= cell_9_9 2)))
 (let (($x526 (= cell_9_9 1)))
 (or $x526 $x2186 (= cell_9_9 3) (= cell_9_9 4) (= cell_9_9 5) (= cell_9_9 6) (= cell_9_9 7) (= cell_9_9 8) (= cell_9_9 9)))))
(assert
 (and (distinct cell_1_1 cell_1_2 cell_1_3 cell_1_4 cell_1_5 cell_1_6 cell_1_7 cell_1_8 cell_1_9) true))
(assert
 (and (distinct cell_2_1 cell_2_2 cell_2_3 cell_2_4 cell_2_5 cell_2_6 cell_2_7 cell_2_8 cell_2_9) true))
(assert
 (and (distinct cell_3_1 cell_3_2 cell_3_3 cell_3_4 cell_3_5 cell_3_6 cell_3_7 cell_3_8 cell_3_9) true))
(assert
 (and (distinct cell_4_1 cell_4_2 cell_4_3 cell_4_4 cell_4_5 cell_4_6 cell_4_7 cell_4_8 cell_4_9) true))
(assert
 (and (distinct cell_5_1 cell_5_2 cell_5_3 cell_5_4 cell_5_5 cell_5_6 cell_5_7 cell_5_8 cell_5_9) true))
(assert
 (and (distinct cell_6_1 cell_6_2 cell_6_3 cell_6_4 cell_6_5 cell_6_6 cell_6_7 cell_6_8 cell_6_9) true))
(assert
 (and (distinct cell_7_1 cell_7_2 cell_7_3 cell_7_4 cell_7_5 cell_7_6 cell_7_7 cell_7_8 cell_7_9) true))
(assert
 (and (distinct cell_8_1 cell_8_2 cell_8_3 cell_8_4 cell_8_5 cell_8_6 cell_8_7 cell_8_8 cell_8_9) true))
(assert
 (and (distinct cell_9_1 cell_9_2 cell_9_3 cell_9_4 cell_9_5 cell_9_6 cell_9_7 cell_9_8 cell_9_9) true))
(assert
 (and (distinct cell_1_1 cell_2_1 cell_3_1 cell_4_1 cell_5_1 cell_6_1 cell_7_1 cell_8_1 cell_9_1) true))
(assert
 (and (distinct cell_1_2 cell_2_2 cell_3_2 cell_4_2 cell_5_2 cell_6_2 cell_7_2 cell_8_2 cell_9_2) true))
(assert
 (and (distinct cell_1_3 cell_2_3 cell_3_3 cell_4_3 cell_5_3 cell_6_3 cell_7_3 cell_8_3 cell_9_3) true))
(assert
 (and (distinct cell_1_4 cell_2_4 cell_3_4 cell_4_4 cell_5_4 cell_6_4 cell_7_4 cell_8_4 cell_9_4) true))
(assert
 (and (distinct cell_1_5 cell_2_5 cell_3_5 cell_4_5 cell_5_5 cell_6_5 cell_7_5 cell_8_5 cell_9_5) true))
(assert
 (and (distinct cell_1_6 cell_2_6 cell_3_6 cell_4_6 cell_5_6 cell_6_6 cell_7_6 cell_8_6 cell_9_6) true))
(assert
 (and (distinct cell_1_7 cell_2_7 cell_3_7 cell_4_7 cell_5_7 cell_6_7 cell_7_7 cell_8_7 cell_9_7) true))
(assert
 (and (distinct cell_1_8 cell_2_8 cell_3_8 cell_4_8 cell_5_8 cell_6_8 cell_7_8 cell_8_8 cell_9_8) true))
(assert
 (and (distinct cell_1_9 cell_2_9 cell_3_9 cell_4_9 cell_5_9 cell_6_9 cell_7_9 cell_8_9 cell_9_9) true))
(assert
 (and (distinct cell_1_1 cell_1_2 cell_1_3 cell_2_1 cell_2_2 cell_2_3 cell_3_1 cell_3_2 cell_3_3) true))
(assert
 (and (distinct cell_1_4 cell_1_5 cell_1_6 cell_2_4 cell_2_5 cell_2_6 cell_3_4 cell_3_5 cell_3_6) true))
(assert
 (and (distinct cell_1_7 cell_1_8 cell_1_9 cell_2_7 cell_2_8 cell_2_9 cell_3_7 cell_3_8 cell_3_9) true))
(assert
 (and (distinct cell_4_1 cell_4_2 cell_4_3 cell_5_1 cell_5_2 cell_5_3 cell_6_1 cell_6_2 cell_6_3) true))
(assert
 (and (distinct cell_4_4 cell_4_5 cell_4_6 cell_5_4 cell_5_5 cell_5_6 cell_6_4 cell_6_5 cell_6_6) true))
(assert
 (and (distinct cell_4_7 cell_4_8 cell_4_9 cell_5_7 cell_5_8 cell_5_9 cell_6_7 cell_6_8 cell_6_9) true))
(assert
 (and (distinct cell_7_1 cell_7_2 cell_7_3 cell_8_1 cell_8_2 cell_8_3 cell_9_1 cell_9_2 cell_9_3) true))
(assert
 (and (distinct cell_7_4 cell_7_5 cell_7_6 cell_8_4 cell_8_5 cell_8_6 cell_9_4 cell_9_5 cell_9_6) true))
(assert
 (and (distinct cell_7_7 cell_7_8 cell_7_9 cell_8_7 cell_8_8 cell_8_9 cell_9_7 cell_9_8 cell_9_9) true))
(assert
 (let (($x2047 (and (distinct cell_5_9 cell_6_8 cell_7_7 cell_8_6) true)))
 (let (($x1476 (and (distinct cell_2_9 cell_3_8 cell_4_7 cell_5_6 cell_6_5 cell_7_4 cell_8_3 cell_9_2) true)))
 (let (($x2970 (and (distinct cell_1_8 cell_2_7 cell_3_6 cell_4_5 cell_5_4 cell_6_3 cell_7_2 cell_8_1) true)))
 (let (($x2666 (and (distinct cell_1_5 cell_2_4 cell_3_3 cell_4_2) true)))
 (let (($x2046 (and (distinct cell_5_1 cell_6_2 cell_7_3 cell_8_4) true)))
 (let (($x1341 (and (distinct cell_2_1 cell_3_2 cell_4_3 cell_5_4 cell_6_5 cell_7_6 cell_8_7 cell_9_8) true)))
 (let (($x2964 (and (distinct cell_1_2 cell_2_3 cell_3_4 cell_4_5 cell_5_6 cell_6_7 cell_7_8 cell_8_9) true)))
 (let (($x2521 (and (distinct cell_1_5 cell_2_6 cell_3_7 cell_4_8) true)))
 (and $x2521 $x2964 $x1341 $x2046 $x2666 $x2970 $x1476 $x2047))))))))))
(assert
 (= cell_9_7 2))
(check-sat)
